c CNF file corresponding to a (partial) station packing problem.
p cnf 4548 229
1 2 3 4 5 6 7 8 9 10 11 12 13 14 0
-1 -2 0
-1 -3 0
-1 -4 0
-1 -5 0
-1 -6 0
-1 -7 0
-1 -8 0
-1 -9 0
-1 -10 0
-1 -11 0
-1 -12 0
-1 -13 0
-1 -14 0
-2 -3 0
-2 -4 0
-2 -5 0
-2 -6 0
-2 -7 0
-2 -8 0
-2 -9 0
-2 -10 0
-2 -11 0
-2 -12 0
-2 -13 0
-2 -14 0
-3 -4 0
-3 -5 0
-3 -6 0
-3 -7 0
-3 -8 0
-3 -9 0
-3 -10 0
-3 -11 0
-3 -12 0
-3 -13 0
-3 -14 0
-4 -5 0
-4 -6 0
-4 -7 0
-4 -8 0
-4 -9 0
-4 -10 0
-4 -11 0
-4 -12 0
-4 -13 0
-4 -14 0
-5 -6 0
-5 -7 0
-5 -8 0
-5 -9 0
-5 -10 0
-5 -11 0
-5 -12 0
-5 -13 0
-5 -14 0
-6 -7 0
-6 -8 0
-6 -9 0
-6 -10 0
-6 -11 0
-6 -12 0
-6 -13 0
-6 -14 0
-7 -8 0
-7 -9 0
-7 -10 0
-7 -11 0
-7 -12 0
-7 -13 0
-7 -14 0
-8 -9 0
-8 -10 0
-8 -11 0
-8 -12 0
-8 -13 0
-8 -14 0
-9 -10 0
-9 -11 0
-9 -12 0
-9 -13 0
-9 -14 0
-10 -11 0
-10 -12 0
-10 -13 0
-10 -14 0
-11 -12 0
-11 -13 0
-11 -14 0
-12 -13 0
-12 -14 0
-13 -14 0
4532 4533 4534 4535 4536 4537 4538 4539 4540 4541 4542 4543 4544 4545 4546 4547 4548 0
-4532 -4533 0
-4532 -4534 0
-4532 -4535 0
-4532 -4536 0
-4532 -4537 0
-4532 -4538 0
-4532 -4539 0
-4532 -4540 0
-4532 -4541 0
-4532 -4542 0
-4532 -4543 0
-4532 -4544 0
-4532 -4545 0
-4532 -4546 0
-4532 -4547 0
-4532 -4548 0
-4533 -4534 0
-4533 -4535 0
-4533 -4536 0
-4533 -4537 0
-4533 -4538 0
-4533 -4539 0
-4533 -4540 0
-4533 -4541 0
-4533 -4542 0
-4533 -4543 0
-4533 -4544 0
-4533 -4545 0
-4533 -4546 0
-4533 -4547 0
-4533 -4548 0
-4534 -4535 0
-4534 -4536 0
-4534 -4537 0
-4534 -4538 0
-4534 -4539 0
-4534 -4540 0
-4534 -4541 0
-4534 -4542 0
-4534 -4543 0
-4534 -4544 0
-4534 -4545 0
-4534 -4546 0
-4534 -4547 0
-4534 -4548 0
-4535 -4536 0
-4535 -4537 0
-4535 -4538 0
-4535 -4539 0
-4535 -4540 0
-4535 -4541 0
-4535 -4542 0
-4535 -4543 0
-4535 -4544 0
-4535 -4545 0
-4535 -4546 0
-4535 -4547 0
-4535 -4548 0
-4536 -4537 0
-4536 -4538 0
-4536 -4539 0
-4536 -4540 0
-4536 -4541 0
-4536 -4542 0
-4536 -4543 0
-4536 -4544 0
-4536 -4545 0
-4536 -4546 0
-4536 -4547 0
-4536 -4548 0
-4537 -4538 0
-4537 -4539 0
-4537 -4540 0
-4537 -4541 0
-4537 -4542 0
-4537 -4543 0
-4537 -4544 0
-4537 -4545 0
-4537 -4546 0
-4537 -4547 0
-4537 -4548 0
-4538 -4539 0
-4538 -4540 0
-4538 -4541 0
-4538 -4542 0
-4538 -4543 0
-4538 -4544 0
-4538 -4545 0
-4538 -4546 0
-4538 -4547 0
-4538 -4548 0
-4539 -4540 0
-4539 -4541 0
-4539 -4542 0
-4539 -4543 0
-4539 -4544 0
-4539 -4545 0
-4539 -4546 0
-4539 -4547 0
-4539 -4548 0
-4540 -4541 0
-4540 -4542 0
-4540 -4543 0
-4540 -4544 0
-4540 -4545 0
-4540 -4546 0
-4540 -4547 0
-4540 -4548 0
-4541 -4542 0
-4541 -4543 0
-4541 -4544 0
-4541 -4545 0
-4541 -4546 0
-4541 -4547 0
-4541 -4548 0
-4542 -4543 0
-4542 -4544 0
-4542 -4545 0
-4542 -4546 0
-4542 -4547 0
-4542 -4548 0
-4543 -4544 0
-4543 -4545 0
-4543 -4546 0
-4543 -4547 0
-4543 -4548 0
-4544 -4545 0
-4544 -4546 0
-4544 -4547 0
-4544 -4548 0
-4545 -4546 0
-4545 -4547 0
-4545 -4548 0
-4546 -4547 0
-4546 -4548 0
-4547 -4548 0
